(written by ASE)

128 atoms
1 atom types

0.0                   11.48  xlo xhi
0.0                   11.48  ylo yhi
0.0                   11.48  zlo zhi

Masses

1      55.844999985634189 # Fe

Atoms # atomic

     1   1                       0                       0                       0
     2   1      1.4350000000000001      1.4350000000000001      1.4350000000000001
     3   1                       0                       0      2.8700000000000001
     4   1      1.4350000000000001      1.4350000000000001      4.3049999999999997
     5   1                       0                       0      5.7400000000000002
     6   1      1.4350000000000001      1.4350000000000001      7.1750000000000007
     7   1                       0                       0      8.6099999999999994
     8   1      1.4350000000000001      1.4350000000000001                  10.045
     9   1                       0      2.8700000000000001                       0
    10   1      1.4350000000000001      4.3049999999999997      1.4350000000000001
    11   1                       0      2.8700000000000001      2.8700000000000001
    12   1      1.4350000000000001      4.3049999999999997      4.3049999999999997
    13   1                       0      2.8700000000000001      5.7400000000000002
    14   1      1.4350000000000001      4.3049999999999997      7.1750000000000007
    15   1                       0      2.8700000000000001      8.6099999999999994
    16   1      1.4350000000000001      4.3049999999999997                  10.045
    17   1                       0      5.7400000000000002                       0
    18   1      1.4350000000000001      7.1750000000000007      1.4350000000000001
    19   1                       0      5.7400000000000002      2.8700000000000001
    20   1      1.4350000000000001      7.1750000000000007      4.3049999999999997
    21   1                       0      5.7400000000000002      5.7400000000000002
    22   1      1.4350000000000001      7.1750000000000007      7.1750000000000007
    23   1                       0      5.7400000000000002      8.6099999999999994
    24   1      1.4350000000000001      7.1750000000000007                  10.045
    25   1                       0      8.6099999999999994                       0
    26   1      1.4350000000000001                  10.045      1.4350000000000001
    27   1                       0      8.6099999999999994      2.8700000000000001
    28   1      1.4350000000000001                  10.045      4.3049999999999997
    29   1                       0      8.6099999999999994      5.7400000000000002
    30   1      1.4350000000000001                  10.045      7.1750000000000007
    31   1                       0      8.6099999999999994      8.6099999999999994
    32   1      1.4350000000000001                  10.045                  10.045
    33   1      2.8700000000000001                       0                       0
    34   1      4.3049999999999997      1.4350000000000001      1.4350000000000001
    35   1      2.8700000000000001                       0      2.8700000000000001
    36   1      4.3049999999999997      1.4350000000000001      4.3049999999999997
    37   1      2.8700000000000001                       0      5.7400000000000002
    38   1      4.3049999999999997      1.4350000000000001      7.1750000000000007
    39   1      2.8700000000000001                       0      8.6099999999999994
    40   1      4.3049999999999997      1.4350000000000001                  10.045
    41   1      2.8700000000000001      2.8700000000000001                       0
    42   1      4.3049999999999997      4.3049999999999997      1.4350000000000001
    43   1      2.8700000000000001      2.8700000000000001      2.8700000000000001
    44   1      4.3049999999999997      4.3049999999999997      4.3049999999999997
    45   1      2.8700000000000001      2.8700000000000001      5.7400000000000002
    46   1      4.3049999999999997      4.3049999999999997      7.1750000000000007
    47   1      2.8700000000000001      2.8700000000000001      8.6099999999999994
    48   1      4.3049999999999997      4.3049999999999997                  10.045
    49   1      2.8700000000000001      5.7400000000000002                       0
    50   1      4.3049999999999997      7.1750000000000007      1.4350000000000001
    51   1      2.8700000000000001      5.7400000000000002      2.8700000000000001
    52   1      4.3049999999999997      7.1750000000000007      4.3049999999999997
    53   1      2.8700000000000001      5.7400000000000002      5.7400000000000002
    54   1      4.3049999999999997      7.1750000000000007      7.1750000000000007
    55   1      2.8700000000000001      5.7400000000000002      8.6099999999999994
    56   1      4.3049999999999997      7.1750000000000007                  10.045
    57   1      2.8700000000000001      8.6099999999999994                       0
    58   1      4.3049999999999997                  10.045      1.4350000000000001
    59   1      2.8700000000000001      8.6099999999999994      2.8700000000000001
    60   1      4.3049999999999997                  10.045      4.3049999999999997
    61   1      2.8700000000000001      8.6099999999999994      5.7400000000000002
    62   1      4.3049999999999997                  10.045      7.1750000000000007
    63   1      2.8700000000000001      8.6099999999999994      8.6099999999999994
    64   1      4.3049999999999997                  10.045                  10.045
    65   1      5.7400000000000002                       0                       0
    66   1      7.1750000000000007      1.4350000000000001      1.4350000000000001
    67   1      5.7400000000000002                       0      2.8700000000000001
    68   1      7.1750000000000007      1.4350000000000001      4.3049999999999997
    69   1      5.7400000000000002                       0      5.7400000000000002
    70   1      7.1750000000000007      1.4350000000000001      7.1750000000000007
    71   1      5.7400000000000002                       0      8.6099999999999994
    72   1      7.1750000000000007      1.4350000000000001                  10.045
    73   1      5.7400000000000002      2.8700000000000001                       0
    74   1      7.1750000000000007      4.3049999999999997      1.4350000000000001
    75   1      5.7400000000000002      2.8700000000000001      2.8700000000000001
    76   1      7.1750000000000007      4.3049999999999997      4.3049999999999997
    77   1      5.7400000000000002      2.8700000000000001      5.7400000000000002
    78   1      7.1750000000000007      4.3049999999999997      7.1750000000000007
    79   1      5.7400000000000002      2.8700000000000001      8.6099999999999994
    80   1      7.1750000000000007      4.3049999999999997                  10.045
    81   1      5.7400000000000002      5.7400000000000002                       0
    82   1      7.1750000000000007      7.1750000000000007      1.4350000000000001
    83   1      5.7400000000000002      5.7400000000000002      2.8700000000000001
    84   1      7.1750000000000007      7.1750000000000007      4.3049999999999997
    85   1      5.7400000000000002      5.7400000000000002      5.7400000000000002
    86   1      7.1750000000000007      7.1750000000000007      7.1750000000000007
    87   1      5.7400000000000002      5.7400000000000002      8.6099999999999994
    88   1      7.1750000000000007      7.1750000000000007                  10.045
    89   1      5.7400000000000002      8.6099999999999994                       0
    90   1      7.1750000000000007                  10.045      1.4350000000000001
    91   1      5.7400000000000002      8.6099999999999994      2.8700000000000001
    92   1      7.1750000000000007                  10.045      4.3049999999999997
    93   1      5.7400000000000002      8.6099999999999994      5.7400000000000002
    94   1      7.1750000000000007                  10.045      7.1750000000000007
    95   1      5.7400000000000002      8.6099999999999994      8.6099999999999994
    96   1      7.1750000000000007                  10.045                  10.045
    97   1      8.6099999999999994                       0                       0
    98   1                  10.045      1.4350000000000001      1.4350000000000001
    99   1      8.6099999999999994                       0      2.8700000000000001
   100   1                  10.045      1.4350000000000001      4.3049999999999997
   101   1      8.6099999999999994                       0      5.7400000000000002
   102   1                  10.045      1.4350000000000001      7.1750000000000007
   103   1      8.6099999999999994                       0      8.6099999999999994
   104   1                  10.045      1.4350000000000001                  10.045
   105   1      8.6099999999999994      2.8700000000000001                       0
   106   1                  10.045      4.3049999999999997      1.4350000000000001
   107   1      8.6099999999999994      2.8700000000000001      2.8700000000000001
   108   1                  10.045      4.3049999999999997      4.3049999999999997
   109   1      8.6099999999999994      2.8700000000000001      5.7400000000000002
   110   1                  10.045      4.3049999999999997      7.1750000000000007
   111   1      8.6099999999999994      2.8700000000000001      8.6099999999999994
   112   1                  10.045      4.3049999999999997                  10.045
   113   1      8.6099999999999994      5.7400000000000002                       0
   114   1                  10.045      7.1750000000000007      1.4350000000000001
   115   1      8.6099999999999994      5.7400000000000002      2.8700000000000001
   116   1                  10.045      7.1750000000000007      4.3049999999999997
   117   1      8.6099999999999994      5.7400000000000002      5.7400000000000002
   118   1                  10.045      7.1750000000000007      7.1750000000000007
   119   1      8.6099999999999994      5.7400000000000002      8.6099999999999994
   120   1                  10.045      7.1750000000000007                  10.045
   121   1      8.6099999999999994      8.6099999999999994                       0
   122   1                  10.045                  10.045      1.4350000000000001
   123   1      8.6099999999999994      8.6099999999999994      2.8700000000000001
   124   1                  10.045                  10.045      4.3049999999999997
   125   1      8.6099999999999994      8.6099999999999994      5.7400000000000002
   126   1                  10.045                  10.045      7.1750000000000007
   127   1      8.6099999999999994      8.6099999999999994      8.6099999999999994
   128   1                  10.045                  10.045                  10.045
