(written by ASE)

108 atoms
1 atom types

0.0      12.149999999999999  xlo xhi
0.0      12.149999999999999  ylo yhi
0.0      12.149999999999999  zlo zhi

Masses

1      26.981538493059151 # Al

Atoms # atomic

     1   1                       0                       0                       0
     2   1                       0      2.0249999999999999      2.0249999999999999
     3   1      2.0249999999999999                       0      2.0249999999999999
     4   1      2.0249999999999999      2.0249999999999999                       0
     5   1                       0                       0      4.0499999999999998
     6   1                       0      2.0249999999999999      6.0749999999999993
     7   1      2.0249999999999999                       0      6.0749999999999993
     8   1      2.0249999999999999      2.0249999999999999      4.0499999999999998
     9   1                       0                       0      8.0999999999999996
    10   1                       0      2.0249999999999999                  10.125
    11   1      2.0249999999999999                       0                  10.125
    12   1      2.0249999999999999      2.0249999999999999      8.0999999999999996
    13   1                       0      4.0499999999999998                       0
    14   1                       0      6.0749999999999993      2.0249999999999999
    15   1      2.0249999999999999      4.0499999999999998      2.0249999999999999
    16   1      2.0249999999999999      6.0749999999999993                       0
    17   1                       0      4.0499999999999998      4.0499999999999998
    18   1                       0      6.0749999999999993      6.0749999999999993
    19   1      2.0249999999999999      4.0499999999999998      6.0749999999999993
    20   1      2.0249999999999999      6.0749999999999993      4.0499999999999998
    21   1                       0      4.0499999999999998      8.0999999999999996
    22   1                       0      6.0749999999999993                  10.125
    23   1      2.0249999999999999      4.0499999999999998                  10.125
    24   1      2.0249999999999999      6.0749999999999993      8.0999999999999996
    25   1                       0      8.0999999999999996                       0
    26   1                       0                  10.125      2.0249999999999999
    27   1      2.0249999999999999      8.0999999999999996      2.0249999999999999
    28   1      2.0249999999999999                  10.125                       0
    29   1                       0      8.0999999999999996      4.0499999999999998
    30   1                       0                  10.125      6.0749999999999993
    31   1      2.0249999999999999      8.0999999999999996      6.0749999999999993
    32   1      2.0249999999999999                  10.125      4.0499999999999998
    33   1                       0      8.0999999999999996      8.0999999999999996
    34   1                       0                  10.125                  10.125
    35   1      2.0249999999999999      8.0999999999999996                  10.125
    36   1      2.0249999999999999                  10.125      8.0999999999999996
    37   1      4.0499999999999998                       0                       0
    38   1      4.0499999999999998      2.0249999999999999      2.0249999999999999
    39   1      6.0749999999999993                       0      2.0249999999999999
    40   1      6.0749999999999993      2.0249999999999999                       0
    41   1      4.0499999999999998                       0      4.0499999999999998
    42   1      4.0499999999999998      2.0249999999999999      6.0749999999999993
    43   1      6.0749999999999993                       0      6.0749999999999993
    44   1      6.0749999999999993      2.0249999999999999      4.0499999999999998
    45   1      4.0499999999999998                       0      8.0999999999999996
    46   1      4.0499999999999998      2.0249999999999999                  10.125
    47   1      6.0749999999999993                       0                  10.125
    48   1      6.0749999999999993      2.0249999999999999      8.0999999999999996
    49   1      4.0499999999999998      4.0499999999999998                       0
    50   1      4.0499999999999998      6.0749999999999993      2.0249999999999999
    51   1      6.0749999999999993      4.0499999999999998      2.0249999999999999
    52   1      6.0749999999999993      6.0749999999999993                       0
    53   1      4.0499999999999998      4.0499999999999998      4.0499999999999998
    54   1      4.0499999999999998      6.0749999999999993      6.0749999999999993
    55   1      6.0749999999999993      4.0499999999999998      6.0749999999999993
    56   1      6.0749999999999993      6.0749999999999993      4.0499999999999998
    57   1      4.0499999999999998      4.0499999999999998      8.0999999999999996
    58   1      4.0499999999999998      6.0749999999999993                  10.125
    59   1      6.0749999999999993      4.0499999999999998                  10.125
    60   1      6.0749999999999993      6.0749999999999993      8.0999999999999996
    61   1      4.0499999999999998      8.0999999999999996                       0
    62   1      4.0499999999999998                  10.125      2.0249999999999999
    63   1      6.0749999999999993      8.0999999999999996      2.0249999999999999
    64   1      6.0749999999999993                  10.125                       0
    65   1      4.0499999999999998      8.0999999999999996      4.0499999999999998
    66   1      4.0499999999999998                  10.125      6.0749999999999993
    67   1      6.0749999999999993      8.0999999999999996      6.0749999999999993
    68   1      6.0749999999999993                  10.125      4.0499999999999998
    69   1      4.0499999999999998      8.0999999999999996      8.0999999999999996
    70   1      4.0499999999999998                  10.125                  10.125
    71   1      6.0749999999999993      8.0999999999999996                  10.125
    72   1      6.0749999999999993                  10.125      8.0999999999999996
    73   1      8.0999999999999996                       0                       0
    74   1      8.0999999999999996      2.0249999999999999      2.0249999999999999
    75   1                  10.125                       0      2.0249999999999999
    76   1                  10.125      2.0249999999999999                       0
    77   1      8.0999999999999996                       0      4.0499999999999998
    78   1      8.0999999999999996      2.0249999999999999      6.0749999999999993
    79   1                  10.125                       0      6.0749999999999993
    80   1                  10.125      2.0249999999999999      4.0499999999999998
    81   1      8.0999999999999996                       0      8.0999999999999996
    82   1      8.0999999999999996      2.0249999999999999                  10.125
    83   1                  10.125                       0                  10.125
    84   1                  10.125      2.0249999999999999      8.0999999999999996
    85   1      8.0999999999999996      4.0499999999999998                       0
    86   1      8.0999999999999996      6.0749999999999993      2.0249999999999999
    87   1                  10.125      4.0499999999999998      2.0249999999999999
    88   1                  10.125      6.0749999999999993                       0
    89   1      8.0999999999999996      4.0499999999999998      4.0499999999999998
    90   1      8.0999999999999996      6.0749999999999993      6.0749999999999993
    91   1                  10.125      4.0499999999999998      6.0749999999999993
    92   1                  10.125      6.0749999999999993      4.0499999999999998
    93   1      8.0999999999999996      4.0499999999999998      8.0999999999999996
    94   1      8.0999999999999996      6.0749999999999993                  10.125
    95   1                  10.125      4.0499999999999998                  10.125
    96   1                  10.125      6.0749999999999993      8.0999999999999996
    97   1      8.0999999999999996      8.0999999999999996                       0
    98   1      8.0999999999999996                  10.125      2.0249999999999999
    99   1                  10.125      8.0999999999999996      2.0249999999999999
   100   1                  10.125                  10.125                       0
   101   1      8.0999999999999996      8.0999999999999996      4.0499999999999998
   102   1      8.0999999999999996                  10.125      6.0749999999999993
   103   1                  10.125      8.0999999999999996      6.0749999999999993
   104   1                  10.125                  10.125      4.0499999999999998
   105   1      8.0999999999999996      8.0999999999999996      8.0999999999999996
   106   1      8.0999999999999996                  10.125                  10.125
   107   1                  10.125      8.0999999999999996                  10.125
   108   1                  10.125                  10.125      8.0999999999999996
