(written by ASE)

96 atoms
1 atom types

0.0                   12.84  xlo xhi
0.0      11.119766184592191  ylo yhi
0.0      15.725724148668002  zlo zhi
    -6.4199999999999999                       0                       0  xy xz yz

Masses

1      24.304999993747675 # Mg

Atoms # atomic

     1   1                       0                       0                       0
     2   1 -8.8632804799241652e-17      1.8532943640986981      2.6209540247780003
     3   1                       0                       0      5.2419080495560006
     4   1 -8.8632804799241652e-17      1.8532943640986981       7.862862074334001
     5   1                       0                       0      10.483816099112001
     6   1 -8.8632804799241652e-17      1.8532943640986981      13.104770123890003
     7   1     -1.6049999999999998      2.7799415461480477                       0
     8   1     -1.6049999999999998      4.6332359102467464      2.6209540247780003
     9   1     -1.6049999999999998      2.7799415461480477      5.2419080495560006
    10   1     -1.6049999999999998      4.6332359102467464       7.862862074334001
    11   1     -1.6049999999999998      2.7799415461480477      10.483816099112001
    12   1     -1.6049999999999998      4.6332359102467464      13.104770123890003
    13   1     -3.2099999999999995      5.5598830922960953                       0
    14   1     -3.2099999999999995      7.4131774563947923      2.6209540247780003
    15   1     -3.2099999999999995      5.5598830922960953      5.2419080495560006
    16   1     -3.2099999999999995      7.4131774563947923       7.862862074334001
    17   1     -3.2099999999999995      5.5598830922960953      10.483816099112001
    18   1     -3.2099999999999995      7.4131774563947923      13.104770123890003
    19   1     -4.8149999999999986      8.3398246384441421                       0
    20   1     -4.8149999999999986       10.19311900254284      2.6209540247780003
    21   1     -4.8149999999999986      8.3398246384441421      5.2419080495560006
    22   1     -4.8149999999999986       10.19311900254284       7.862862074334001
    23   1     -4.8149999999999986      8.3398246384441421      10.483816099112001
    24   1     -4.8149999999999986       10.19311900254284      13.104770123890003
    25   1      3.2099999999999995 -2.0575700744304137e-16                       0
    26   1      3.2099999999999995      1.8532943640986979      2.6209540247780003
    27   1      3.2099999999999995 -2.0575700744304137e-16      5.2419080495560006
    28   1      3.2099999999999995      1.8532943640986979       7.862862074334001
    29   1      3.2099999999999995 -2.0575700744304137e-16      10.483816099112001
    30   1      3.2099999999999995      1.8532943640986979      13.104770123890003
    31   1      1.6049999999999998      2.7799415461480472                       0
    32   1      1.6049999999999998      4.6332359102467455      2.6209540247780003
    33   1      1.6049999999999998      2.7799415461480472      5.2419080495560006
    34   1      1.6049999999999998      4.6332359102467455       7.862862074334001
    35   1      1.6049999999999998      2.7799415461480472      10.483816099112001
    36   1      1.6049999999999998      4.6332359102467455      13.104770123890003
    37   1                       0      5.5598830922960945                       0
    38   1 -8.8632804799241652e-17      7.4131774563947923      2.6209540247780003
    39   1                       0      5.5598830922960945      5.2419080495560006
    40   1 -8.8632804799241652e-17      7.4131774563947923       7.862862074334001
    41   1                       0      5.5598830922960945      10.483816099112001
    42   1 -8.8632804799241652e-17      7.4131774563947923      13.104770123890003
    43   1     -1.6049999999999998      8.3398246384441421                       0
    44   1     -1.6049999999999998      10.193119002542838      2.6209540247780003
    45   1     -1.6049999999999998      8.3398246384441421      5.2419080495560006
    46   1     -1.6049999999999998      10.193119002542838       7.862862074334001
    47   1     -1.6049999999999998      8.3398246384441421      10.483816099112001
    48   1     -1.6049999999999998      10.193119002542838      13.104770123890003
    49   1       6.419999999999999 -4.1151401488608274e-16                       0
    50   1       6.419999999999999      1.8532943640986976      2.6209540247780003
    51   1       6.419999999999999 -4.1151401488608274e-16      5.2419080495560006
    52   1       6.419999999999999      1.8532943640986976       7.862862074334001
    53   1       6.419999999999999 -4.1151401488608274e-16      10.483816099112001
    54   1       6.419999999999999      1.8532943640986976      13.104770123890003
    55   1      4.8149999999999986      2.7799415461480472                       0
    56   1      4.8149999999999986      4.6332359102467455      2.6209540247780003
    57   1      4.8149999999999986      2.7799415461480472      5.2419080495560006
    58   1      4.8149999999999986      4.6332359102467455       7.862862074334001
    59   1      4.8149999999999986      2.7799415461480472      10.483816099112001
    60   1      4.8149999999999986      4.6332359102467455      13.104770123890003
    61   1      3.2099999999999995      5.5598830922960945                       0
    62   1      3.2099999999999995      7.4131774563947923      2.6209540247780003
    63   1      3.2099999999999995      5.5598830922960945      5.2419080495560006
    64   1      3.2099999999999995      7.4131774563947923       7.862862074334001
    65   1      3.2099999999999995      5.5598830922960945      10.483816099112001
    66   1      3.2099999999999995      7.4131774563947923      13.104770123890003
    67   1      1.6049999999999998      8.3398246384441403                       0
    68   1      1.6049999999999998      10.193119002542838      2.6209540247780003
    69   1      1.6049999999999998      8.3398246384441403      5.2419080495560006
    70   1      1.6049999999999998      10.193119002542838       7.862862074334001
    71   1      1.6049999999999998      8.3398246384441403      10.483816099112001
    72   1      1.6049999999999998      10.193119002542838      13.104770123890003
    73   1      9.6299999999999972 -6.1727102232912403e-16                       0
    74   1      9.6299999999999972      1.8532943640986974      2.6209540247780003
    75   1      9.6299999999999972 -6.1727102232912403e-16      5.2419080495560006
    76   1      9.6299999999999972      1.8532943640986974       7.862862074334001
    77   1      9.6299999999999972 -6.1727102232912403e-16      10.483816099112001
    78   1      9.6299999999999972      1.8532943640986974      13.104770123890003
    79   1      8.0249999999999968      2.7799415461480468                       0
    80   1      8.0249999999999968      4.6332359102467455      2.6209540247780003
    81   1      8.0249999999999968      2.7799415461480468      5.2419080495560006
    82   1      8.0249999999999968      4.6332359102467455       7.862862074334001
    83   1      8.0249999999999968      2.7799415461480468      10.483816099112001
    84   1      8.0249999999999968      4.6332359102467455      13.104770123890003
    85   1      6.4199999999999982      5.5598830922960945                       0
    86   1      6.4199999999999982      7.4131774563947923      2.6209540247780003
    87   1      6.4199999999999982      5.5598830922960945      5.2419080495560006
    88   1      6.4199999999999982      7.4131774563947923       7.862862074334001
    89   1      6.4199999999999982      5.5598830922960945      10.483816099112001
    90   1      6.4199999999999982      7.4131774563947923      13.104770123890003
    91   1      4.8149999999999986      8.3398246384441403                       0
    92   1      4.8149999999999986      10.193119002542838      2.6209540247780003
    93   1      4.8149999999999986      8.3398246384441403      5.2419080495560006
    94   1      4.8149999999999986      10.193119002542838       7.862862074334001
    95   1      4.8149999999999986      8.3398246384441403      10.483816099112001
    96   1      4.8149999999999986      10.193119002542838      13.104770123890003
