(written by ASE)

216 atoms
2 atom types

0.0      16.919999999999998  xlo xhi
0.0      16.919999999999998  ylo yhi
0.0      16.919999999999998  zlo zhi

Masses

1      35.449999990880691 # Cl
2      22.989769274086012 # Na

Atoms # atomic

     1   2                       0                       0                       0
     2   1      2.8199999999999998                       0                       0
     3   2                       0      2.8199999999999998      2.8199999999999998
     4   1      2.8199999999999998      2.8199999999999998      2.8199999999999998
     5   2      2.8199999999999998                       0      2.8199999999999998
     6   1                       0                       0      2.8199999999999998
     7   2      2.8199999999999998      2.8199999999999998                       0
     8   1                       0      2.8199999999999998                       0
     9   2                       0                       0      5.6399999999999997
    10   1      2.8199999999999998                       0      5.6399999999999997
    11   2                       0      2.8199999999999998      8.4599999999999991
    12   1      2.8199999999999998      2.8199999999999998      8.4599999999999991
    13   2      2.8199999999999998                       0      8.4599999999999991
    14   1                       0                       0      8.4599999999999991
    15   2      2.8199999999999998      2.8199999999999998      5.6399999999999997
    16   1                       0      2.8199999999999998      5.6399999999999997
    17   2                       0                       0      11.279999999999999
    18   1      2.8199999999999998                       0      11.279999999999999
    19   2                       0      2.8199999999999998                    14.1
    20   1      2.8199999999999998      2.8199999999999998                    14.1
    21   2      2.8199999999999998                       0                    14.1
    22   1                       0                       0                    14.1
    23   2      2.8199999999999998      2.8199999999999998      11.279999999999999
    24   1                       0      2.8199999999999998      11.279999999999999
    25   2                       0      5.6399999999999997                       0
    26   1      2.8199999999999998      5.6399999999999997                       0
    27   2                       0      8.4599999999999991      2.8199999999999998
    28   1      2.8199999999999998      8.4599999999999991      2.8199999999999998
    29   2      2.8199999999999998      5.6399999999999997      2.8199999999999998
    30   1                       0      5.6399999999999997      2.8199999999999998
    31   2      2.8199999999999998      8.4599999999999991                       0
    32   1                       0      8.4599999999999991                       0
    33   2                       0      5.6399999999999997      5.6399999999999997
    34   1      2.8199999999999998      5.6399999999999997      5.6399999999999997
    35   2                       0      8.4599999999999991      8.4599999999999991
    36   1      2.8199999999999998      8.4599999999999991      8.4599999999999991
    37   2      2.8199999999999998      5.6399999999999997      8.4599999999999991
    38   1                       0      5.6399999999999997      8.4599999999999991
    39   2      2.8199999999999998      8.4599999999999991      5.6399999999999997
    40   1                       0      8.4599999999999991      5.6399999999999997
    41   2                       0      5.6399999999999997      11.279999999999999
    42   1      2.8199999999999998      5.6399999999999997      11.279999999999999
    43   2                       0      8.4599999999999991                    14.1
    44   1      2.8199999999999998      8.4599999999999991                    14.1
    45   2      2.8199999999999998      5.6399999999999997                    14.1
    46   1                       0      5.6399999999999997                    14.1
    47   2      2.8199999999999998      8.4599999999999991      11.279999999999999
    48   1                       0      8.4599999999999991      11.279999999999999
    49   2                       0      11.279999999999999                       0
    50   1      2.8199999999999998      11.279999999999999                       0
    51   2                       0                    14.1      2.8199999999999998
    52   1      2.8199999999999998                    14.1      2.8199999999999998
    53   2      2.8199999999999998      11.279999999999999      2.8199999999999998
    54   1                       0      11.279999999999999      2.8199999999999998
    55   2      2.8199999999999998                    14.1                       0
    56   1                       0                    14.1                       0
    57   2                       0      11.279999999999999      5.6399999999999997
    58   1      2.8199999999999998      11.279999999999999      5.6399999999999997
    59   2                       0                    14.1      8.4599999999999991
    60   1      2.8199999999999998                    14.1      8.4599999999999991
    61   2      2.8199999999999998      11.279999999999999      8.4599999999999991
    62   1                       0      11.279999999999999      8.4599999999999991
    63   2      2.8199999999999998                    14.1      5.6399999999999997
    64   1                       0                    14.1      5.6399999999999997
    65   2                       0      11.279999999999999      11.279999999999999
    66   1      2.8199999999999998      11.279999999999999      11.279999999999999
    67   2                       0                    14.1                    14.1
    68   1      2.8199999999999998                    14.1                    14.1
    69   2      2.8199999999999998      11.279999999999999                    14.1
    70   1                       0      11.279999999999999                    14.1
    71   2      2.8199999999999998                    14.1      11.279999999999999
    72   1                       0                    14.1      11.279999999999999
    73   2      5.6399999999999997                       0                       0
    74   1      8.4599999999999991                       0                       0
    75   2      5.6399999999999997      2.8199999999999998      2.8199999999999998
    76   1      8.4599999999999991      2.8199999999999998      2.8199999999999998
    77   2      8.4599999999999991                       0      2.8199999999999998
    78   1      5.6399999999999997                       0      2.8199999999999998
    79   2      8.4599999999999991      2.8199999999999998                       0
    80   1      5.6399999999999997      2.8199999999999998                       0
    81   2      5.6399999999999997                       0      5.6399999999999997
    82   1      8.4599999999999991                       0      5.6399999999999997
    83   2      5.6399999999999997      2.8199999999999998      8.4599999999999991
    84   1      8.4599999999999991      2.8199999999999998      8.4599999999999991
    85   2      8.4599999999999991                       0      8.4599999999999991
    86   1      5.6399999999999997                       0      8.4599999999999991
    87   2      8.4599999999999991      2.8199999999999998      5.6399999999999997
    88   1      5.6399999999999997      2.8199999999999998      5.6399999999999997
    89   2      5.6399999999999997                       0      11.279999999999999
    90   1      8.4599999999999991                       0      11.279999999999999
    91   2      5.6399999999999997      2.8199999999999998                    14.1
    92   1      8.4599999999999991      2.8199999999999998                    14.1
    93   2      8.4599999999999991                       0                    14.1
    94   1      5.6399999999999997                       0                    14.1
    95   2      8.4599999999999991      2.8199999999999998      11.279999999999999
    96   1      5.6399999999999997      2.8199999999999998      11.279999999999999
    97   2      5.6399999999999997      5.6399999999999997                       0
    98   1      8.4599999999999991      5.6399999999999997                       0
    99   2      5.6399999999999997      8.4599999999999991      2.8199999999999998
   100   1      8.4599999999999991      8.4599999999999991      2.8199999999999998
   101   2      8.4599999999999991      5.6399999999999997      2.8199999999999998
   102   1      5.6399999999999997      5.6399999999999997      2.8199999999999998
   103   2      8.4599999999999991      8.4599999999999991                       0
   104   1      5.6399999999999997      8.4599999999999991                       0
   105   2      5.6399999999999997      5.6399999999999997      5.6399999999999997
   106   1      8.4599999999999991      5.6399999999999997      5.6399999999999997
   107   2      5.6399999999999997      8.4599999999999991      8.4599999999999991
   108   1      8.4599999999999991      8.4599999999999991      8.4599999999999991
   109   2      8.4599999999999991      5.6399999999999997      8.4599999999999991
   110   1      5.6399999999999997      5.6399999999999997      8.4599999999999991
   111   2      8.4599999999999991      8.4599999999999991      5.6399999999999997
   112   1      5.6399999999999997      8.4599999999999991      5.6399999999999997
   113   2      5.6399999999999997      5.6399999999999997      11.279999999999999
   114   1      8.4599999999999991      5.6399999999999997      11.279999999999999
   115   2      5.6399999999999997      8.4599999999999991                    14.1
   116   1      8.4599999999999991      8.4599999999999991                    14.1
   117   2      8.4599999999999991      5.6399999999999997                    14.1
   118   1      5.6399999999999997      5.6399999999999997                    14.1
   119   2      8.4599999999999991      8.4599999999999991      11.279999999999999
   120   1      5.6399999999999997      8.4599999999999991      11.279999999999999
   121   2      5.6399999999999997      11.279999999999999                       0
   122   1      8.4599999999999991      11.279999999999999                       0
   123   2      5.6399999999999997                    14.1      2.8199999999999998
   124   1      8.4599999999999991                    14.1      2.8199999999999998
   125   2      8.4599999999999991      11.279999999999999      2.8199999999999998
   126   1      5.6399999999999997      11.279999999999999      2.8199999999999998
   127   2      8.4599999999999991                    14.1                       0
   128   1      5.6399999999999997                    14.1                       0
   129   2      5.6399999999999997      11.279999999999999      5.6399999999999997
   130   1      8.4599999999999991      11.279999999999999      5.6399999999999997
   131   2      5.6399999999999997                    14.1      8.4599999999999991
   132   1      8.4599999999999991                    14.1      8.4599999999999991
   133   2      8.4599999999999991      11.279999999999999      8.4599999999999991
   134   1      5.6399999999999997      11.279999999999999      8.4599999999999991
   135   2      8.4599999999999991                    14.1      5.6399999999999997
   136   1      5.6399999999999997                    14.1      5.6399999999999997
   137   2      5.6399999999999997      11.279999999999999      11.279999999999999
   138   1      8.4599999999999991      11.279999999999999      11.279999999999999
   139   2      5.6399999999999997                    14.1                    14.1
   140   1      8.4599999999999991                    14.1                    14.1
   141   2      8.4599999999999991      11.279999999999999                    14.1
   142   1      5.6399999999999997      11.279999999999999                    14.1
   143   2      8.4599999999999991                    14.1      11.279999999999999
   144   1      5.6399999999999997                    14.1      11.279999999999999
   145   2      11.279999999999999                       0                       0
   146   1                    14.1                       0                       0
   147   2      11.279999999999999      2.8199999999999998      2.8199999999999998
   148   1                    14.1      2.8199999999999998      2.8199999999999998
   149   2                    14.1                       0      2.8199999999999998
   150   1      11.279999999999999                       0      2.8199999999999998
   151   2                    14.1      2.8199999999999998                       0
   152   1      11.279999999999999      2.8199999999999998                       0
   153   2      11.279999999999999                       0      5.6399999999999997
   154   1                    14.1                       0      5.6399999999999997
   155   2      11.279999999999999      2.8199999999999998      8.4599999999999991
   156   1                    14.1      2.8199999999999998      8.4599999999999991
   157   2                    14.1                       0      8.4599999999999991
   158   1      11.279999999999999                       0      8.4599999999999991
   159   2                    14.1      2.8199999999999998      5.6399999999999997
   160   1      11.279999999999999      2.8199999999999998      5.6399999999999997
   161   2      11.279999999999999                       0      11.279999999999999
   162   1                    14.1                       0      11.279999999999999
   163   2      11.279999999999999      2.8199999999999998                    14.1
   164   1                    14.1      2.8199999999999998                    14.1
   165   2                    14.1                       0                    14.1
   166   1      11.279999999999999                       0                    14.1
   167   2                    14.1      2.8199999999999998      11.279999999999999
   168   1      11.279999999999999      2.8199999999999998      11.279999999999999
   169   2      11.279999999999999      5.6399999999999997                       0
   170   1                    14.1      5.6399999999999997                       0
   171   2      11.279999999999999      8.4599999999999991      2.8199999999999998
   172   1                    14.1      8.4599999999999991      2.8199999999999998
   173   2                    14.1      5.6399999999999997      2.8199999999999998
   174   1      11.279999999999999      5.6399999999999997      2.8199999999999998
   175   2                    14.1      8.4599999999999991                       0
   176   1      11.279999999999999      8.4599999999999991                       0
   177   2      11.279999999999999      5.6399999999999997      5.6399999999999997
   178   1                    14.1      5.6399999999999997      5.6399999999999997
   179   2      11.279999999999999      8.4599999999999991      8.4599999999999991
   180   1                    14.1      8.4599999999999991      8.4599999999999991
   181   2                    14.1      5.6399999999999997      8.4599999999999991
   182   1      11.279999999999999      5.6399999999999997      8.4599999999999991
   183   2                    14.1      8.4599999999999991      5.6399999999999997
   184   1      11.279999999999999      8.4599999999999991      5.6399999999999997
   185   2      11.279999999999999      5.6399999999999997      11.279999999999999
   186   1                    14.1      5.6399999999999997      11.279999999999999
   187   2      11.279999999999999      8.4599999999999991                    14.1
   188   1                    14.1      8.4599999999999991                    14.1
   189   2                    14.1      5.6399999999999997                    14.1
   190   1      11.279999999999999      5.6399999999999997                    14.1
   191   2                    14.1      8.4599999999999991      11.279999999999999
   192   1      11.279999999999999      8.4599999999999991      11.279999999999999
   193   2      11.279999999999999      11.279999999999999                       0
   194   1                    14.1      11.279999999999999                       0
   195   2      11.279999999999999                    14.1      2.8199999999999998
   196   1                    14.1                    14.1      2.8199999999999998
   197   2                    14.1      11.279999999999999      2.8199999999999998
   198   1      11.279999999999999      11.279999999999999      2.8199999999999998
   199   2                    14.1                    14.1                       0
   200   1      11.279999999999999                    14.1                       0
   201   2      11.279999999999999      11.279999999999999      5.6399999999999997
   202   1                    14.1      11.279999999999999      5.6399999999999997
   203   2      11.279999999999999                    14.1      8.4599999999999991
   204   1                    14.1                    14.1      8.4599999999999991
   205   2                    14.1      11.279999999999999      8.4599999999999991
   206   1      11.279999999999999      11.279999999999999      8.4599999999999991
   207   2                    14.1                    14.1      5.6399999999999997
   208   1      11.279999999999999                    14.1      5.6399999999999997
   209   2      11.279999999999999      11.279999999999999      11.279999999999999
   210   1                    14.1      11.279999999999999      11.279999999999999
   211   2      11.279999999999999                    14.1                    14.1
   212   1                    14.1                    14.1                    14.1
   213   2                    14.1      11.279999999999999                    14.1
   214   1      11.279999999999999      11.279999999999999                    14.1
   215   2                    14.1                    14.1      11.279999999999999
   216   1      11.279999999999999                    14.1      11.279999999999999
