(written by ASE)

64 atoms
1 atom types

0.0                      12  xlo xhi
0.0                      12  ylo yhi
0.0                      12  zlo zhi

Masses

1      208.98242994624044 # Po

Atoms # atomic

     1   1                       0                       0                       0
     2   1                       0                       0                       3
     3   1                       0                       0                       6
     4   1                       0                       0                       9
     5   1                       0                       3                       0
     6   1                       0                       3                       3
     7   1                       0                       3                       6
     8   1                       0                       3                       9
     9   1                       0                       6                       0
    10   1                       0                       6                       3
    11   1                       0                       6                       6
    12   1                       0                       6                       9
    13   1                       0                       9                       0
    14   1                       0                       9                       3
    15   1                       0                       9                       6
    16   1                       0                       9                       9
    17   1                       3                       0                       0
    18   1                       3                       0                       3
    19   1                       3                       0                       6
    20   1                       3                       0                       9
    21   1                       3                       3                       0
    22   1                       3                       3                       3
    23   1                       3                       3                       6
    24   1                       3                       3                       9
    25   1                       3                       6                       0
    26   1                       3                       6                       3
    27   1                       3                       6                       6
    28   1                       3                       6                       9
    29   1                       3                       9                       0
    30   1                       3                       9                       3
    31   1                       3                       9                       6
    32   1                       3                       9                       9
    33   1                       6                       0                       0
    34   1                       6                       0                       3
    35   1                       6                       0                       6
    36   1                       6                       0                       9
    37   1                       6                       3                       0
    38   1                       6                       3                       3
    39   1                       6                       3                       6
    40   1                       6                       3                       9
    41   1                       6                       6                       0
    42   1                       6                       6                       3
    43   1                       6                       6                       6
    44   1                       6                       6                       9
    45   1                       6                       9                       0
    46   1                       6                       9                       3
    47   1                       6                       9                       6
    48   1                       6                       9                       9
    49   1                       9                       0                       0
    50   1                       9                       0                       3
    51   1                       9                       0                       6
    52   1                       9                       0                       9
    53   1                       9                       3                       0
    54   1                       9                       3                       3
    55   1                       9                       3                       6
    56   1                       9                       3                       9
    57   1                       9                       6                       0
    58   1                       9                       6                       3
    59   1                       9                       6                       6
    60   1                       9                       6                       9
    61   1                       9                       9                       0
    62   1                       9                       9                       3
    63   1                       9                       9                       6
    64   1                       9                       9                       9
