(written by ASE)

107 atoms
1 atom types

0.0      12.149999999999999  xlo xhi
0.0      12.149999999999999  ylo yhi
0.0      12.149999999999999  zlo zhi

Masses

1      26.981538493059151 # Al

Atoms # atomic

     1   1                       0      2.0249999999999999      2.0249999999999999
     2   1      2.0249999999999999                       0      2.0249999999999999
     3   1      2.0249999999999999      2.0249999999999999                       0
     4   1                       0                       0      4.0499999999999998
     5   1                       0      2.0249999999999999      6.0749999999999993
     6   1      2.0249999999999999                       0      6.0749999999999993
     7   1      2.0249999999999999      2.0249999999999999      4.0499999999999998
     8   1                       0                       0      8.0999999999999996
     9   1                       0      2.0249999999999999                  10.125
    10   1      2.0249999999999999                       0                  10.125
    11   1      2.0249999999999999      2.0249999999999999      8.0999999999999996
    12   1                       0      4.0499999999999998                       0
    13   1                       0      6.0749999999999993      2.0249999999999999
    14   1      2.0249999999999999      4.0499999999999998      2.0249999999999999
    15   1      2.0249999999999999      6.0749999999999993                       0
    16   1                       0      4.0499999999999998      4.0499999999999998
    17   1                       0      6.0749999999999993      6.0749999999999993
    18   1      2.0249999999999999      4.0499999999999998      6.0749999999999993
    19   1      2.0249999999999999      6.0749999999999993      4.0499999999999998
    20   1                       0      4.0499999999999998      8.0999999999999996
    21   1                       0      6.0749999999999993                  10.125
    22   1      2.0249999999999999      4.0499999999999998                  10.125
    23   1      2.0249999999999999      6.0749999999999993      8.0999999999999996
    24   1                       0      8.0999999999999996                       0
    25   1                       0                  10.125      2.0249999999999999
    26   1      2.0249999999999999      8.0999999999999996      2.0249999999999999
    27   1      2.0249999999999999                  10.125                       0
    28   1                       0      8.0999999999999996      4.0499999999999998
    29   1                       0                  10.125      6.0749999999999993
    30   1      2.0249999999999999      8.0999999999999996      6.0749999999999993
    31   1      2.0249999999999999                  10.125      4.0499999999999998
    32   1                       0      8.0999999999999996      8.0999999999999996
    33   1                       0                  10.125                  10.125
    34   1      2.0249999999999999      8.0999999999999996                  10.125
    35   1      2.0249999999999999                  10.125      8.0999999999999996
    36   1      4.0499999999999998                       0                       0
    37   1      4.0499999999999998      2.0249999999999999      2.0249999999999999
    38   1      6.0749999999999993                       0      2.0249999999999999
    39   1      6.0749999999999993      2.0249999999999999                       0
    40   1      4.0499999999999998                       0      4.0499999999999998
    41   1      4.0499999999999998      2.0249999999999999      6.0749999999999993
    42   1      6.0749999999999993                       0      6.0749999999999993
    43   1      6.0749999999999993      2.0249999999999999      4.0499999999999998
    44   1      4.0499999999999998                       0      8.0999999999999996
    45   1      4.0499999999999998      2.0249999999999999                  10.125
    46   1      6.0749999999999993                       0                  10.125
    47   1      6.0749999999999993      2.0249999999999999      8.0999999999999996
    48   1      4.0499999999999998      4.0499999999999998                       0
    49   1      4.0499999999999998      6.0749999999999993      2.0249999999999999
    50   1      6.0749999999999993      4.0499999999999998      2.0249999999999999
    51   1      6.0749999999999993      6.0749999999999993                       0
    52   1      4.0499999999999998      4.0499999999999998      4.0499999999999998
    53   1      4.0499999999999998      6.0749999999999993      6.0749999999999993
    54   1      6.0749999999999993      4.0499999999999998      6.0749999999999993
    55   1      6.0749999999999993      6.0749999999999993      4.0499999999999998
    56   1      4.0499999999999998      4.0499999999999998      8.0999999999999996
    57   1      4.0499999999999998      6.0749999999999993                  10.125
    58   1      6.0749999999999993      4.0499999999999998                  10.125
    59   1      6.0749999999999993      6.0749999999999993      8.0999999999999996
    60   1      4.0499999999999998      8.0999999999999996                       0
    61   1      4.0499999999999998                  10.125      2.0249999999999999
    62   1      6.0749999999999993      8.0999999999999996      2.0249999999999999
    63   1      6.0749999999999993                  10.125                       0
    64   1      4.0499999999999998      8.0999999999999996      4.0499999999999998
    65   1      4.0499999999999998                  10.125      6.0749999999999993
    66   1      6.0749999999999993      8.0999999999999996      6.0749999999999993
    67   1      6.0749999999999993                  10.125      4.0499999999999998
    68   1      4.0499999999999998      8.0999999999999996      8.0999999999999996
    69   1      4.0499999999999998                  10.125                  10.125
    70   1      6.0749999999999993      8.0999999999999996                  10.125
    71   1      6.0749999999999993                  10.125      8.0999999999999996
    72   1      8.0999999999999996                       0                       0
    73   1      8.0999999999999996      2.0249999999999999      2.0249999999999999
    74   1                  10.125                       0      2.0249999999999999
    75   1                  10.125      2.0249999999999999                       0
    76   1      8.0999999999999996                       0      4.0499999999999998
    77   1      8.0999999999999996      2.0249999999999999      6.0749999999999993
    78   1                  10.125                       0      6.0749999999999993
    79   1                  10.125      2.0249999999999999      4.0499999999999998
    80   1      8.0999999999999996                       0      8.0999999999999996
    81   1      8.0999999999999996      2.0249999999999999                  10.125
    82   1                  10.125                       0                  10.125
    83   1                  10.125      2.0249999999999999      8.0999999999999996
    84   1      8.0999999999999996      4.0499999999999998                       0
    85   1      8.0999999999999996      6.0749999999999993      2.0249999999999999
    86   1                  10.125      4.0499999999999998      2.0249999999999999
    87   1                  10.125      6.0749999999999993                       0
    88   1      8.0999999999999996      4.0499999999999998      4.0499999999999998
    89   1      8.0999999999999996      6.0749999999999993      6.0749999999999993
    90   1                  10.125      4.0499999999999998      6.0749999999999993
    91   1                  10.125      6.0749999999999993      4.0499999999999998
    92   1      8.0999999999999996      4.0499999999999998      8.0999999999999996
    93   1      8.0999999999999996      6.0749999999999993                  10.125
    94   1                  10.125      4.0499999999999998                  10.125
    95   1                  10.125      6.0749999999999993      8.0999999999999996
    96   1      8.0999999999999996      8.0999999999999996                       0
    97   1      8.0999999999999996                  10.125      2.0249999999999999
    98   1                  10.125      8.0999999999999996      2.0249999999999999
    99   1                  10.125                  10.125                       0
   100   1      8.0999999999999996      8.0999999999999996      4.0499999999999998
   101   1      8.0999999999999996                  10.125      6.0749999999999993
   102   1                  10.125      8.0999999999999996      6.0749999999999993
   103   1                  10.125                  10.125      4.0499999999999998
   104   1      8.0999999999999996      8.0999999999999996      8.0999999999999996
   105   1      8.0999999999999996                  10.125                  10.125
   106   1                  10.125      8.0999999999999996                  10.125
   107   1                  10.125                  10.125      8.0999999999999996
